n_machines = 10;
n_resources = 12;
n_jobs = 74;
horizon = 38948;
LB = 5721;
n_jobs_per_resource = [7, 5, 9, 8, 8, 7, 2, 7, 4, 6, 2, 9];
duration = [266, 575, 914, 449, 985, 764, 14, 648, 104, 285, 175, 670, 766, 616, 133, 952, 316, 967, 138, 848, 985, 660, 725, 908, 622, 482, 175, 479, 852, 643, 355, 46, 985, 688, 43, 817, 266, 904, 797, 219, 250, 255, 652, 184, 401, 906, 123, 395, 368, 77, 692, 785, 448, 793, 991, 909, 578, 381, 214, 769, 329, 512, 37, 789, 636, 649, 7, 960, 79, 763, 667, 104, 105, 904]